(set-info :source |printed by MathSAT|)

1 (6) @37:
(assert true)

6 (11) @50:
(assert true)

11 (17) @50:
(assert true)

17 (22) @50:
(assert true)

22 (26) @50:
(assert true)

26 (29) @50:
(assert true)

29 (32) @50:
(assert true)

32 (33,34) @50:
(assert true)

33 () @372:
(assert true)

34 () @50:
(assert true)

